(set-logic QF_S)
(declare-fun _var_0xINPUT_102782_() String)
(declare-fun __woorpje_diseq_pref0_() String)
(declare-fun __woorpje_diseq_suf_l0_() String)
(declare-fun __woorpje_diseq_suf_r0_() String)
(assert (=(str.++ _var_0xINPUT_102782_  "")(str.++ __woorpje_diseq_pref0_  "N" __woorpje_diseq_suf_l0_  "")) )
(assert (=(str.++  "TcMbZN3YUe" "")(str.++ __woorpje_diseq_pref0_  "e" __woorpje_diseq_suf_r0_  "")) )
(check-sat)
